nNurses = 120;
nHours = 27;
minHours = 3;
maxHours = 13;
maxConsec = 11;
maxPresence = 15;
demand = [30, 30, 28, 31, 26, 31, 35, 37, 33, 32, 28, 30, 34, 29, 28, 31, 26, 29, 24, 26, 21, 16, 12, 15, 12, 8, 13];
